c description: Graph pigeonhole principle formula on fast_gnp_random_graph(20,10,0.9)
c generator: CNFgen (0.9.0)
c copyright: (C) 2012-2020 Massimo Lauria <massimo.lauria@uniroma1.it>
c url: https://massimolauria.net/cnfgen
c
p cnf 185 1650
1 2 3 4 5 6 7 8 0
9 10 11 12 13 14 15 16 17 0
18 19 20 21 22 23 24 25 26 0
27 28 29 30 31 32 33 34 35 0
36 37 38 39 40 41 42 43 44 0
45 46 47 48 49 50 51 52 53 54 0
55 56 57 58 59 60 61 62 63 64 0
65 66 67 68 69 70 71 72 73 74 0
75 76 77 78 79 80 81 0
82 83 84 85 86 87 88 89 90 0
91 92 93 94 95 96 97 98 99 0
100 101 102 103 104 105 106 107 108 0
109 110 111 112 113 114 115 116 117 0
118 119 120 121 122 123 124 125 126 0
127 128 129 130 131 132 133 134 135 136 0
137 138 139 140 141 142 143 144 145 146 0
147 148 149 150 151 152 153 154 155 156 0
157 158 159 160 161 162 163 164 165 0
166 167 168 169 170 171 172 173 174 175 0
176 177 178 179 180 181 182 183 184 185 0
-1 -9 0
-1 -18 0
-1 -27 0
-1 -36 0
-1 -45 0
-1 -55 0
-1 -65 0
-1 -75 0
-1 -82 0
-1 -91 0
-1 -100 0
-1 -109 0
-1 -118 0
-1 -127 0
-1 -137 0
-1 -147 0
-1 -157 0
-1 -166 0
-1 -176 0
-9 -18 0
-9 -27 0
-9 -36 0
-9 -45 0
-9 -55 0
-9 -65 0
-9 -75 0
-9 -82 0
-9 -91 0
-9 -100 0
-9 -109 0
-9 -118 0
-9 -127 0
-9 -137 0
-9 -147 0
-9 -157 0
-9 -166 0
-9 -176 0
-18 -27 0
-18 -36 0
-18 -45 0
-18 -55 0
-18 -65 0
-18 -75 0
-18 -82 0
-18 -91 0
-18 -100 0
-18 -109 0
-18 -118 0
-18 -127 0
-18 -137 0
-18 -147 0
-18 -157 0
-18 -166 0
-18 -176 0
-27 -36 0
-27 -45 0
-27 -55 0
-27 -65 0
-27 -75 0
-27 -82 0
-27 -91 0
-27 -100 0
-27 -109 0
-27 -118 0
-27 -127 0
-27 -137 0
-27 -147 0
-27 -157 0
-27 -166 0
-27 -176 0
-36 -45 0
-36 -55 0
-36 -65 0
-36 -75 0
-36 -82 0
-36 -91 0
-36 -100 0
-36 -109 0
-36 -118 0
-36 -127 0
-36 -137 0
-36 -147 0
-36 -157 0
-36 -166 0
-36 -176 0
-45 -55 0
-45 -65 0
-45 -75 0
-45 -82 0
-45 -91 0
-45 -100 0
-45 -109 0
-45 -118 0
-45 -127 0
-45 -137 0
-45 -147 0
-45 -157 0
-45 -166 0
-45 -176 0
-55 -65 0
-55 -75 0
-55 -82 0
-55 -91 0
-55 -100 0
-55 -109 0
-55 -118 0
-55 -127 0
-55 -137 0
-55 -147 0
-55 -157 0
-55 -166 0
-55 -176 0
-65 -75 0
-65 -82 0
-65 -91 0
-65 -100 0
-65 -109 0
-65 -118 0
-65 -127 0
-65 -137 0
-65 -147 0
-65 -157 0
-65 -166 0
-65 -176 0
-75 -82 0
-75 -91 0
-75 -100 0
-75 -109 0
-75 -118 0
-75 -127 0
-75 -137 0
-75 -147 0
-75 -157 0
-75 -166 0
-75 -176 0
-82 -91 0
-82 -100 0
-82 -109 0
-82 -118 0
-82 -127 0
-82 -137 0
-82 -147 0
-82 -157 0
-82 -166 0
-82 -176 0
-91 -100 0
-91 -109 0
-91 -118 0
-91 -127 0
-91 -137 0
-91 -147 0
-91 -157 0
-91 -166 0
-91 -176 0
-100 -109 0
-100 -118 0
-100 -127 0
-100 -137 0
-100 -147 0
-100 -157 0
-100 -166 0
-100 -176 0
-109 -118 0
-109 -127 0
-109 -137 0
-109 -147 0
-109 -157 0
-109 -166 0
-109 -176 0
-118 -127 0
-118 -137 0
-118 -147 0
-118 -157 0
-118 -166 0
-118 -176 0
-127 -137 0
-127 -147 0
-127 -157 0
-127 -166 0
-127 -176 0
-137 -147 0
-137 -157 0
-137 -166 0
-137 -176 0
-147 -157 0
-147 -166 0
-147 -176 0
-157 -166 0
-157 -176 0
-166 -176 0
-2 -10 0
-2 -19 0
-2 -28 0
-2 -37 0
-2 -46 0
-2 -56 0
-2 -66 0
-2 -76 0
-2 -83 0
-2 -92 0
-2 -101 0
-2 -110 0
-2 -119 0
-2 -128 0
-2 -138 0
-2 -148 0
-2 -158 0
-2 -167 0
-2 -177 0
-10 -19 0
-10 -28 0
-10 -37 0
-10 -46 0
-10 -56 0
-10 -66 0
-10 -76 0
-10 -83 0
-10 -92 0
-10 -101 0
-10 -110 0
-10 -119 0
-10 -128 0
-10 -138 0
-10 -148 0
-10 -158 0
-10 -167 0
-10 -177 0
-19 -28 0
-19 -37 0
-19 -46 0
-19 -56 0
-19 -66 0
-19 -76 0
-19 -83 0
-19 -92 0
-19 -101 0
-19 -110 0
-19 -119 0
-19 -128 0
-19 -138 0
-19 -148 0
-19 -158 0
-19 -167 0
-19 -177 0
-28 -37 0
-28 -46 0
-28 -56 0
-28 -66 0
-28 -76 0
-28 -83 0
-28 -92 0
-28 -101 0
-28 -110 0
-28 -119 0
-28 -128 0
-28 -138 0
-28 -148 0
-28 -158 0
-28 -167 0
-28 -177 0
-37 -46 0
-37 -56 0
-37 -66 0
-37 -76 0
-37 -83 0
-37 -92 0
-37 -101 0
-37 -110 0
-37 -119 0
-37 -128 0
-37 -138 0
-37 -148 0
-37 -158 0
-37 -167 0
-37 -177 0
-46 -56 0
-46 -66 0
-46 -76 0
-46 -83 0
-46 -92 0
-46 -101 0
-46 -110 0
-46 -119 0
-46 -128 0
-46 -138 0
-46 -148 0
-46 -158 0
-46 -167 0
-46 -177 0
-56 -66 0
-56 -76 0
-56 -83 0
-56 -92 0
-56 -101 0
-56 -110 0
-56 -119 0
-56 -128 0
-56 -138 0
-56 -148 0
-56 -158 0
-56 -167 0
-56 -177 0
-66 -76 0
-66 -83 0
-66 -92 0
-66 -101 0
-66 -110 0
-66 -119 0
-66 -128 0
-66 -138 0
-66 -148 0
-66 -158 0
-66 -167 0
-66 -177 0
-76 -83 0
-76 -92 0
-76 -101 0
-76 -110 0
-76 -119 0
-76 -128 0
-76 -138 0
-76 -148 0
-76 -158 0
-76 -167 0
-76 -177 0
-83 -92 0
-83 -101 0
-83 -110 0
-83 -119 0
-83 -128 0
-83 -138 0
-83 -148 0
-83 -158 0
-83 -167 0
-83 -177 0
-92 -101 0
-92 -110 0
-92 -119 0
-92 -128 0
-92 -138 0
-92 -148 0
-92 -158 0
-92 -167 0
-92 -177 0
-101 -110 0
-101 -119 0
-101 -128 0
-101 -138 0
-101 -148 0
-101 -158 0
-101 -167 0
-101 -177 0
-110 -119 0
-110 -128 0
-110 -138 0
-110 -148 0
-110 -158 0
-110 -167 0
-110 -177 0
-119 -128 0
-119 -138 0
-119 -148 0
-119 -158 0
-119 -167 0
-119 -177 0
-128 -138 0
-128 -148 0
-128 -158 0
-128 -167 0
-128 -177 0
-138 -148 0
-138 -158 0
-138 -167 0
-138 -177 0
-148 -158 0
-148 -167 0
-148 -177 0
-158 -167 0
-158 -177 0
-167 -177 0
-3 -11 0
-3 -20 0
-3 -29 0
-3 -38 0
-3 -47 0
-3 -57 0
-3 -67 0
-3 -77 0
-3 -84 0
-3 -93 0
-3 -102 0
-3 -111 0
-3 -120 0
-3 -129 0
-3 -139 0
-3 -149 0
-3 -159 0
-3 -168 0
-3 -178 0
-11 -20 0
-11 -29 0
-11 -38 0
-11 -47 0
-11 -57 0
-11 -67 0
-11 -77 0
-11 -84 0
-11 -93 0
-11 -102 0
-11 -111 0
-11 -120 0
-11 -129 0
-11 -139 0
-11 -149 0
-11 -159 0
-11 -168 0
-11 -178 0
-20 -29 0
-20 -38 0
-20 -47 0
-20 -57 0
-20 -67 0
-20 -77 0
-20 -84 0
-20 -93 0
-20 -102 0
-20 -111 0
-20 -120 0
-20 -129 0
-20 -139 0
-20 -149 0
-20 -159 0
-20 -168 0
-20 -178 0
-29 -38 0
-29 -47 0
-29 -57 0
-29 -67 0
-29 -77 0
-29 -84 0
-29 -93 0
-29 -102 0
-29 -111 0
-29 -120 0
-29 -129 0
-29 -139 0
-29 -149 0
-29 -159 0
-29 -168 0
-29 -178 0
-38 -47 0
-38 -57 0
-38 -67 0
-38 -77 0
-38 -84 0
-38 -93 0
-38 -102 0
-38 -111 0
-38 -120 0
-38 -129 0
-38 -139 0
-38 -149 0
-38 -159 0
-38 -168 0
-38 -178 0
-47 -57 0
-47 -67 0
-47 -77 0
-47 -84 0
-47 -93 0
-47 -102 0
-47 -111 0
-47 -120 0
-47 -129 0
-47 -139 0
-47 -149 0
-47 -159 0
-47 -168 0
-47 -178 0
-57 -67 0
-57 -77 0
-57 -84 0
-57 -93 0
-57 -102 0
-57 -111 0
-57 -120 0
-57 -129 0
-57 -139 0
-57 -149 0
-57 -159 0
-57 -168 0
-57 -178 0
-67 -77 0
-67 -84 0
-67 -93 0
-67 -102 0
-67 -111 0
-67 -120 0
-67 -129 0
-67 -139 0
-67 -149 0
-67 -159 0
-67 -168 0
-67 -178 0
-77 -84 0
-77 -93 0
-77 -102 0
-77 -111 0
-77 -120 0
-77 -129 0
-77 -139 0
-77 -149 0
-77 -159 0
-77 -168 0
-77 -178 0
-84 -93 0
-84 -102 0
-84 -111 0
-84 -120 0
-84 -129 0
-84 -139 0
-84 -149 0
-84 -159 0
-84 -168 0
-84 -178 0
-93 -102 0
-93 -111 0
-93 -120 0
-93 -129 0
-93 -139 0
-93 -149 0
-93 -159 0
-93 -168 0
-93 -178 0
-102 -111 0
-102 -120 0
-102 -129 0
-102 -139 0
-102 -149 0
-102 -159 0
-102 -168 0
-102 -178 0
-111 -120 0
-111 -129 0
-111 -139 0
-111 -149 0
-111 -159 0
-111 -168 0
-111 -178 0
-120 -129 0
-120 -139 0
-120 -149 0
-120 -159 0
-120 -168 0
-120 -178 0
-129 -139 0
-129 -149 0
-129 -159 0
-129 -168 0
-129 -178 0
-139 -149 0
-139 -159 0
-139 -168 0
-139 -178 0
-149 -159 0
-149 -168 0
-149 -178 0
-159 -168 0
-159 -178 0
-168 -178 0
-4 -12 0
-4 -21 0
-4 -30 0
-4 -39 0
-4 -48 0
-4 -58 0
-4 -68 0
-4 -85 0
-4 -94 0
-4 -103 0
-4 -112 0
-4 -121 0
-4 -130 0
-4 -140 0
-4 -150 0
-4 -160 0
-4 -169 0
-4 -179 0
-12 -21 0
-12 -30 0
-12 -39 0
-12 -48 0
-12 -58 0
-12 -68 0
-12 -85 0
-12 -94 0
-12 -103 0
-12 -112 0
-12 -121 0
-12 -130 0
-12 -140 0
-12 -150 0
-12 -160 0
-12 -169 0
-12 -179 0
-21 -30 0
-21 -39 0
-21 -48 0
-21 -58 0
-21 -68 0
-21 -85 0
-21 -94 0
-21 -103 0
-21 -112 0
-21 -121 0
-21 -130 0
-21 -140 0
-21 -150 0
-21 -160 0
-21 -169 0
-21 -179 0
-30 -39 0
-30 -48 0
-30 -58 0
-30 -68 0
-30 -85 0
-30 -94 0
-30 -103 0
-30 -112 0
-30 -121 0
-30 -130 0
-30 -140 0
-30 -150 0
-30 -160 0
-30 -169 0
-30 -179 0
-39 -48 0
-39 -58 0
-39 -68 0
-39 -85 0
-39 -94 0
-39 -103 0
-39 -112 0
-39 -121 0
-39 -130 0
-39 -140 0
-39 -150 0
-39 -160 0
-39 -169 0
-39 -179 0
-48 -58 0
-48 -68 0
-48 -85 0
-48 -94 0
-48 -103 0
-48 -112 0
-48 -121 0
-48 -130 0
-48 -140 0
-48 -150 0
-48 -160 0
-48 -169 0
-48 -179 0
-58 -68 0
-58 -85 0
-58 -94 0
-58 -103 0
-58 -112 0
-58 -121 0
-58 -130 0
-58 -140 0
-58 -150 0
-58 -160 0
-58 -169 0
-58 -179 0
-68 -85 0
-68 -94 0
-68 -103 0
-68 -112 0
-68 -121 0
-68 -130 0
-68 -140 0
-68 -150 0
-68 -160 0
-68 -169 0
-68 -179 0
-85 -94 0
-85 -103 0
-85 -112 0
-85 -121 0
-85 -130 0
-85 -140 0
-85 -150 0
-85 -160 0
-85 -169 0
-85 -179 0
-94 -103 0
-94 -112 0
-94 -121 0
-94 -130 0
-94 -140 0
-94 -150 0
-94 -160 0
-94 -169 0
-94 -179 0
-103 -112 0
-103 -121 0
-103 -130 0
-103 -140 0
-103 -150 0
-103 -160 0
-103 -169 0
-103 -179 0
-112 -121 0
-112 -130 0
-112 -140 0
-112 -150 0
-112 -160 0
-112 -169 0
-112 -179 0
-121 -130 0
-121 -140 0
-121 -150 0
-121 -160 0
-121 -169 0
-121 -179 0
-130 -140 0
-130 -150 0
-130 -160 0
-130 -169 0
-130 -179 0
-140 -150 0
-140 -160 0
-140 -169 0
-140 -179 0
-150 -160 0
-150 -169 0
-150 -179 0
-160 -169 0
-160 -179 0
-169 -179 0
-5 -13 0
-5 -22 0
-5 -31 0
-5 -40 0
-5 -49 0
-5 -59 0
-5 -69 0
-5 -78 0
-5 -86 0
-5 -95 0
-5 -104 0
-5 -113 0
-5 -131 0
-5 -141 0
-5 -151 0
-5 -161 0
-5 -170 0
-5 -180 0
-13 -22 0
-13 -31 0
-13 -40 0
-13 -49 0
-13 -59 0
-13 -69 0
-13 -78 0
-13 -86 0
-13 -95 0
-13 -104 0
-13 -113 0
-13 -131 0
-13 -141 0
-13 -151 0
-13 -161 0
-13 -170 0
-13 -180 0
-22 -31 0
-22 -40 0
-22 -49 0
-22 -59 0
-22 -69 0
-22 -78 0
-22 -86 0
-22 -95 0
-22 -104 0
-22 -113 0
-22 -131 0
-22 -141 0
-22 -151 0
-22 -161 0
-22 -170 0
-22 -180 0
-31 -40 0
-31 -49 0
-31 -59 0
-31 -69 0
-31 -78 0
-31 -86 0
-31 -95 0
-31 -104 0
-31 -113 0
-31 -131 0
-31 -141 0
-31 -151 0
-31 -161 0
-31 -170 0
-31 -180 0
-40 -49 0
-40 -59 0
-40 -69 0
-40 -78 0
-40 -86 0
-40 -95 0
-40 -104 0
-40 -113 0
-40 -131 0
-40 -141 0
-40 -151 0
-40 -161 0
-40 -170 0
-40 -180 0
-49 -59 0
-49 -69 0
-49 -78 0
-49 -86 0
-49 -95 0
-49 -104 0
-49 -113 0
-49 -131 0
-49 -141 0
-49 -151 0
-49 -161 0
-49 -170 0
-49 -180 0
-59 -69 0
-59 -78 0
-59 -86 0
-59 -95 0
-59 -104 0
-59 -113 0
-59 -131 0
-59 -141 0
-59 -151 0
-59 -161 0
-59 -170 0
-59 -180 0
-69 -78 0
-69 -86 0
-69 -95 0
-69 -104 0
-69 -113 0
-69 -131 0
-69 -141 0
-69 -151 0
-69 -161 0
-69 -170 0
-69 -180 0
-78 -86 0
-78 -95 0
-78 -104 0
-78 -113 0
-78 -131 0
-78 -141 0
-78 -151 0
-78 -161 0
-78 -170 0
-78 -180 0
-86 -95 0
-86 -104 0
-86 -113 0
-86 -131 0
-86 -141 0
-86 -151 0
-86 -161 0
-86 -170 0
-86 -180 0
-95 -104 0
-95 -113 0
-95 -131 0
-95 -141 0
-95 -151 0
-95 -161 0
-95 -170 0
-95 -180 0
-104 -113 0
-104 -131 0
-104 -141 0
-104 -151 0
-104 -161 0
-104 -170 0
-104 -180 0
-113 -131 0
-113 -141 0
-113 -151 0
-113 -161 0
-113 -170 0
-113 -180 0
-131 -141 0
-131 -151 0
-131 -161 0
-131 -170 0
-131 -180 0
-141 -151 0
-141 -161 0
-141 -170 0
-141 -180 0
-151 -161 0
-151 -170 0
-151 -180 0
-161 -170 0
-161 -180 0
-170 -180 0
-6 -14 0
-6 -23 0
-6 -32 0
-6 -41 0
-6 -50 0
-6 -60 0
-6 -70 0
-6 -87 0
-6 -96 0
-6 -105 0
-6 -114 0
-6 -122 0
-6 -132 0
-6 -142 0
-6 -152 0
-6 -162 0
-6 -171 0
-6 -181 0
-14 -23 0
-14 -32 0
-14 -41 0
-14 -50 0
-14 -60 0
-14 -70 0
-14 -87 0
-14 -96 0
-14 -105 0
-14 -114 0
-14 -122 0
-14 -132 0
-14 -142 0
-14 -152 0
-14 -162 0
-14 -171 0
-14 -181 0
-23 -32 0
-23 -41 0
-23 -50 0
-23 -60 0
-23 -70 0
-23 -87 0
-23 -96 0
-23 -105 0
-23 -114 0
-23 -122 0
-23 -132 0
-23 -142 0
-23 -152 0
-23 -162 0
-23 -171 0
-23 -181 0
-32 -41 0
-32 -50 0
-32 -60 0
-32 -70 0
-32 -87 0
-32 -96 0
-32 -105 0
-32 -114 0
-32 -122 0
-32 -132 0
-32 -142 0
-32 -152 0
-32 -162 0
-32 -171 0
-32 -181 0
-41 -50 0
-41 -60 0
-41 -70 0
-41 -87 0
-41 -96 0
-41 -105 0
-41 -114 0
-41 -122 0
-41 -132 0
-41 -142 0
-41 -152 0
-41 -162 0
-41 -171 0
-41 -181 0
-50 -60 0
-50 -70 0
-50 -87 0
-50 -96 0
-50 -105 0
-50 -114 0
-50 -122 0
-50 -132 0
-50 -142 0
-50 -152 0
-50 -162 0
-50 -171 0
-50 -181 0
-60 -70 0
-60 -87 0
-60 -96 0
-60 -105 0
-60 -114 0
-60 -122 0
-60 -132 0
-60 -142 0
-60 -152 0
-60 -162 0
-60 -171 0
-60 -181 0
-70 -87 0
-70 -96 0
-70 -105 0
-70 -114 0
-70 -122 0
-70 -132 0
-70 -142 0
-70 -152 0
-70 -162 0
-70 -171 0
-70 -181 0
-87 -96 0
-87 -105 0
-87 -114 0
-87 -122 0
-87 -132 0
-87 -142 0
-87 -152 0
-87 -162 0
-87 -171 0
-87 -181 0
-96 -105 0
-96 -114 0
-96 -122 0
-96 -132 0
-96 -142 0
-96 -152 0
-96 -162 0
-96 -171 0
-96 -181 0
-105 -114 0
-105 -122 0
-105 -132 0
-105 -142 0
-105 -152 0
-105 -162 0
-105 -171 0
-105 -181 0
-114 -122 0
-114 -132 0
-114 -142 0
-114 -152 0
-114 -162 0
-114 -171 0
-114 -181 0
-122 -132 0
-122 -142 0
-122 -152 0
-122 -162 0
-122 -171 0
-122 -181 0
-132 -142 0
-132 -152 0
-132 -162 0
-132 -171 0
-132 -181 0
-142 -152 0
-142 -162 0
-142 -171 0
-142 -181 0
-152 -162 0
-152 -171 0
-152 -181 0
-162 -171 0
-162 -181 0
-171 -181 0
-15 -24 0
-15 -33 0
-15 -51 0
-15 -61 0
-15 -71 0
-15 -79 0
-15 -97 0
-15 -106 0
-15 -115 0
-15 -123 0
-15 -133 0
-15 -143 0
-15 -153 0
-15 -163 0
-15 -172 0
-15 -182 0
-24 -33 0
-24 -51 0
-24 -61 0
-24 -71 0
-24 -79 0
-24 -97 0
-24 -106 0
-24 -115 0
-24 -123 0
-24 -133 0
-24 -143 0
-24 -153 0
-24 -163 0
-24 -172 0
-24 -182 0
-33 -51 0
-33 -61 0
-33 -71 0
-33 -79 0
-33 -97 0
-33 -106 0
-33 -115 0
-33 -123 0
-33 -133 0
-33 -143 0
-33 -153 0
-33 -163 0
-33 -172 0
-33 -182 0
-51 -61 0
-51 -71 0
-51 -79 0
-51 -97 0
-51 -106 0
-51 -115 0
-51 -123 0
-51 -133 0
-51 -143 0
-51 -153 0
-51 -163 0
-51 -172 0
-51 -182 0
-61 -71 0
-61 -79 0
-61 -97 0
-61 -106 0
-61 -115 0
-61 -123 0
-61 -133 0
-61 -143 0
-61 -153 0
-61 -163 0
-61 -172 0
-61 -182 0
-71 -79 0
-71 -97 0
-71 -106 0
-71 -115 0
-71 -123 0
-71 -133 0
-71 -143 0
-71 -153 0
-71 -163 0
-71 -172 0
-71 -182 0
-79 -97 0
-79 -106 0
-79 -115 0
-79 -123 0
-79 -133 0
-79 -143 0
-79 -153 0
-79 -163 0
-79 -172 0
-79 -182 0
-97 -106 0
-97 -115 0
-97 -123 0
-97 -133 0
-97 -143 0
-97 -153 0
-97 -163 0
-97 -172 0
-97 -182 0
-106 -115 0
-106 -123 0
-106 -133 0
-106 -143 0
-106 -153 0
-106 -163 0
-106 -172 0
-106 -182 0
-115 -123 0
-115 -133 0
-115 -143 0
-115 -153 0
-115 -163 0
-115 -172 0
-115 -182 0
-123 -133 0
-123 -143 0
-123 -153 0
-123 -163 0
-123 -172 0
-123 -182 0
-133 -143 0
-133 -153 0
-133 -163 0
-133 -172 0
-133 -182 0
-143 -153 0
-143 -163 0
-143 -172 0
-143 -182 0
-153 -163 0
-153 -172 0
-153 -182 0
-163 -172 0
-163 -182 0
-172 -182 0
-7 -16 0
-7 -25 0
-7 -34 0
-7 -42 0
-7 -52 0
-7 -62 0
-7 -72 0
-7 -80 0
-7 -88 0
-7 -98 0
-7 -116 0
-7 -124 0
-7 -134 0
-7 -144 0
-7 -154 0
-7 -164 0
-7 -173 0
-7 -183 0
-16 -25 0
-16 -34 0
-16 -42 0
-16 -52 0
-16 -62 0
-16 -72 0
-16 -80 0
-16 -88 0
-16 -98 0
-16 -116 0
-16 -124 0
-16 -134 0
-16 -144 0
-16 -154 0
-16 -164 0
-16 -173 0
-16 -183 0
-25 -34 0
-25 -42 0
-25 -52 0
-25 -62 0
-25 -72 0
-25 -80 0
-25 -88 0
-25 -98 0
-25 -116 0
-25 -124 0
-25 -134 0
-25 -144 0
-25 -154 0
-25 -164 0
-25 -173 0
-25 -183 0
-34 -42 0
-34 -52 0
-34 -62 0
-34 -72 0
-34 -80 0
-34 -88 0
-34 -98 0
-34 -116 0
-34 -124 0
-34 -134 0
-34 -144 0
-34 -154 0
-34 -164 0
-34 -173 0
-34 -183 0
-42 -52 0
-42 -62 0
-42 -72 0
-42 -80 0
-42 -88 0
-42 -98 0
-42 -116 0
-42 -124 0
-42 -134 0
-42 -144 0
-42 -154 0
-42 -164 0
-42 -173 0
-42 -183 0
-52 -62 0
-52 -72 0
-52 -80 0
-52 -88 0
-52 -98 0
-52 -116 0
-52 -124 0
-52 -134 0
-52 -144 0
-52 -154 0
-52 -164 0
-52 -173 0
-52 -183 0
-62 -72 0
-62 -80 0
-62 -88 0
-62 -98 0
-62 -116 0
-62 -124 0
-62 -134 0
-62 -144 0
-62 -154 0
-62 -164 0
-62 -173 0
-62 -183 0
-72 -80 0
-72 -88 0
-72 -98 0
-72 -116 0
-72 -124 0
-72 -134 0
-72 -144 0
-72 -154 0
-72 -164 0
-72 -173 0
-72 -183 0
-80 -88 0
-80 -98 0
-80 -116 0
-80 -124 0
-80 -134 0
-80 -144 0
-80 -154 0
-80 -164 0
-80 -173 0
-80 -183 0
-88 -98 0
-88 -116 0
-88 -124 0
-88 -134 0
-88 -144 0
-88 -154 0
-88 -164 0
-88 -173 0
-88 -183 0
-98 -116 0
-98 -124 0
-98 -134 0
-98 -144 0
-98 -154 0
-98 -164 0
-98 -173 0
-98 -183 0
-116 -124 0
-116 -134 0
-116 -144 0
-116 -154 0
-116 -164 0
-116 -173 0
-116 -183 0
-124 -134 0
-124 -144 0
-124 -154 0
-124 -164 0
-124 -173 0
-124 -183 0
-134 -144 0
-134 -154 0
-134 -164 0
-134 -173 0
-134 -183 0
-144 -154 0
-144 -164 0
-144 -173 0
-144 -183 0
-154 -164 0
-154 -173 0
-154 -183 0
-164 -173 0
-164 -183 0
-173 -183 0
-8 -26 0
-8 -43 0
-8 -53 0
-8 -63 0
-8 -73 0
-8 -81 0
-8 -89 0
-8 -107 0
-8 -125 0
-8 -135 0
-8 -145 0
-8 -155 0
-8 -165 0
-8 -174 0
-8 -184 0
-26 -43 0
-26 -53 0
-26 -63 0
-26 -73 0
-26 -81 0
-26 -89 0
-26 -107 0
-26 -125 0
-26 -135 0
-26 -145 0
-26 -155 0
-26 -165 0
-26 -174 0
-26 -184 0
-43 -53 0
-43 -63 0
-43 -73 0
-43 -81 0
-43 -89 0
-43 -107 0
-43 -125 0
-43 -135 0
-43 -145 0
-43 -155 0
-43 -165 0
-43 -174 0
-43 -184 0
-53 -63 0
-53 -73 0
-53 -81 0
-53 -89 0
-53 -107 0
-53 -125 0
-53 -135 0
-53 -145 0
-53 -155 0
-53 -165 0
-53 -174 0
-53 -184 0
-63 -73 0
-63 -81 0
-63 -89 0
-63 -107 0
-63 -125 0
-63 -135 0
-63 -145 0
-63 -155 0
-63 -165 0
-63 -174 0
-63 -184 0
-73 -81 0
-73 -89 0
-73 -107 0
-73 -125 0
-73 -135 0
-73 -145 0
-73 -155 0
-73 -165 0
-73 -174 0
-73 -184 0
-81 -89 0
-81 -107 0
-81 -125 0
-81 -135 0
-81 -145 0
-81 -155 0
-81 -165 0
-81 -174 0
-81 -184 0
-89 -107 0
-89 -125 0
-89 -135 0
-89 -145 0
-89 -155 0
-89 -165 0
-89 -174 0
-89 -184 0
-107 -125 0
-107 -135 0
-107 -145 0
-107 -155 0
-107 -165 0
-107 -174 0
-107 -184 0
-125 -135 0
-125 -145 0
-125 -155 0
-125 -165 0
-125 -174 0
-125 -184 0
-135 -145 0
-135 -155 0
-135 -165 0
-135 -174 0
-135 -184 0
-145 -155 0
-145 -165 0
-145 -174 0
-145 -184 0
-155 -165 0
-155 -174 0
-155 -184 0
-165 -174 0
-165 -184 0
-174 -184 0
-17 -35 0
-17 -44 0
-17 -54 0
-17 -64 0
-17 -74 0
-17 -90 0
-17 -99 0
-17 -108 0
-17 -117 0
-17 -126 0
-17 -136 0
-17 -146 0
-17 -156 0
-17 -175 0
-17 -185 0
-35 -44 0
-35 -54 0
-35 -64 0
-35 -74 0
-35 -90 0
-35 -99 0
-35 -108 0
-35 -117 0
-35 -126 0
-35 -136 0
-35 -146 0
-35 -156 0
-35 -175 0
-35 -185 0
-44 -54 0
-44 -64 0
-44 -74 0
-44 -90 0
-44 -99 0
-44 -108 0
-44 -117 0
-44 -126 0
-44 -136 0
-44 -146 0
-44 -156 0
-44 -175 0
-44 -185 0
-54 -64 0
-54 -74 0
-54 -90 0
-54 -99 0
-54 -108 0
-54 -117 0
-54 -126 0
-54 -136 0
-54 -146 0
-54 -156 0
-54 -175 0
-54 -185 0
-64 -74 0
-64 -90 0
-64 -99 0
-64 -108 0
-64 -117 0
-64 -126 0
-64 -136 0
-64 -146 0
-64 -156 0
-64 -175 0
-64 -185 0
-74 -90 0
-74 -99 0
-74 -108 0
-74 -117 0
-74 -126 0
-74 -136 0
-74 -146 0
-74 -156 0
-74 -175 0
-74 -185 0
-90 -99 0
-90 -108 0
-90 -117 0
-90 -126 0
-90 -136 0
-90 -146 0
-90 -156 0
-90 -175 0
-90 -185 0
-99 -108 0
-99 -117 0
-99 -126 0
-99 -136 0
-99 -146 0
-99 -156 0
-99 -175 0
-99 -185 0
-108 -117 0
-108 -126 0
-108 -136 0
-108 -146 0
-108 -156 0
-108 -175 0
-108 -185 0
-117 -126 0
-117 -136 0
-117 -146 0
-117 -156 0
-117 -175 0
-117 -185 0
-126 -136 0
-126 -146 0
-126 -156 0
-126 -175 0
-126 -185 0
-136 -146 0
-136 -156 0
-136 -175 0
-136 -185 0
-146 -156 0
-146 -175 0
-146 -185 0
-156 -175 0
-156 -185 0
-175 -185 0